qbf_easy_train/easy_1306_UNSAT.qdimacs
p cnf 44 129
a 24 35 0
e 1 2 3 4 5 6 7 8 9 10 11 12 13 14 15 16 17 18 19 20 21 22 23 25 26 27 28 29 30 31 32 33 34 36 37 38 39 40 41 42 43 44 0
-3 1 0
-3 -2 0
-1 2 3 0
-5 2 0
-5 -4 0
-2 4 5 0
-6 -2 0
-6 5 0
2 -5 6 0
-7 6 0
-7 1 0
-6 -1 7 0
-8 3 0
-8 7 0
-3 -7 8 0
10 -9 0
10 2 0
9 -2 -10 0
-11 -10 0
-11 -3 0
10 3 11 0
12 -13 0
-12 -13 0
14 -13 0
14 -4 0
13 4 -14 0
-6 -14 -15 0
6 14 -15 0
-6 14 15 0
6 -14 15 0
-16 -10 0
-16 12 0
10 -12 16 0
-17 -15 0
-17 -16 0
15 16 17 0
-19 -9 0
-19 13 0
9 -13 19 0
-20 18 0
-20 19 0
-18 -19 20 0
-21 -5 0
-21 20 0
5 -20 21 0
-21 10 -22 0
21 -10 -22 0
-21 -10 22 0
21 10 22 0
10 1 -23 0
-10 -1 -23 0
10 -1 23 0
-10 1 23 0
-22 -23 -24 0
22 23 -24 0
-22 23 24 0
22 -23 24 0
-25 -10 0
-25 1 0
10 -1 25 0
-27 -25 0
-27 26 0
25 -26 27 0
-24 27 -28 0
24 -27 -28 0
-24 -27 28 0
24 27 28 0
29 17 0
29 -28 0
-17 28 -29 0
-11 -29 -30 0
11 29 -30 0
-11 29 30 0
11 -29 30 0
-31 20 0
-31 -4 0
-20 4 31 0
33 32 0
33 -9 0
-32 9 -33 0
34 -31 0
34 33 0
31 -33 -34 0
-35 -30 0
-35 34 0
30 -34 35 0
36 -8 0
36 -35 0
8 35 -36 0
-37 -2 0
-37 -32 0
2 32 37 0
38 37 0
38 37 0
-37 -38 0
39 38 0
39 9 0
-38 -9 -39 0
-40 38 0
-40 38 0
-38 40 0
41 -4 0
41 19 0
4 -19 -41 0
40 41 -42 0
-40 -41 -42 0
40 -41 42 0
-40 41 42 0
-39 42 -43 0
39 -42 -43 0
-39 -42 43 0
39 42 43 0
-36 43 -44 0
36 -43 -44 0
-36 -43 44 0
36 43 44 0
-16 20 -12 -24 0
21 29 -26 -18 44 0
-34 11 44 -2 20 0
6 28 -33 -14 5 0
-44 13 37 -8 24 12 18 -6 0
-4 -35 -15 -8 -23 -16 -34 0
6 30 -41 -17 19 0
-36 44 29 -5 0
7 -24 28 -29 -14 39 36 -23 0
23 -40 -9 -10 0
-30 28 9 25 8 -3 40 0
-41 -10 -33 0
44 0
