sat_easy_train/easy_1306_UNSAT.dimacs
p cnf 132 451
3 -1 0
3 2 0
1 -2 -3 0
-3 -2 -4 0
3 2 -4 0
-3 2 4 0
3 -2 4 0
5 6 -7 0
-5 -6 -7 0
5 -6 7 0
-5 6 7 0
8 7 0
8 -3 0
-7 3 -8 0
11 -2 0
11 -10 0
2 10 -11 0
3 -11 -12 0
-3 11 -12 0
3 11 12 0
-3 -11 12 0
-13 5 0
-13 9 0
-5 -9 13 0
-14 -15 -16 0
14 15 -16 0
-14 15 16 0
14 -15 16 0
-17 -13 0
-17 -16 0
13 16 17 0
18 12 0
18 -17 0
-12 17 -18 0
-19 -9 0
-19 -18 0
9 18 19 0
-22 -20 0
-22 21 0
20 -21 22 0
23 -5 0
23 -22 0
5 22 -23 0
-24 19 0
-24 23 0
-19 -23 24 0
25 1 0
25 -3 0
-1 3 -25 0
27 -26 0
27 -9 0
26 9 -27 0
28 27 0
28 14 0
-27 -14 -28 0
-29 28 0
-29 -9 0
-28 9 29 0
25 29 -30 0
-25 -29 -30 0
25 -29 30 0
-25 29 30 0
-31 -21 0
-31 28 0
21 -28 31 0
-30 31 -32 0
30 -31 -32 0
-30 -31 32 0
30 31 32 0
33 -21 0
33 17 0
21 -17 -33 0
-32 33 -34 0
32 -33 -34 0
-32 -33 34 0
32 33 34 0
-35 24 0
-35 34 0
-24 -34 35 0
-36 8 0
-36 -35 0
-8 35 36 0
37 -1 0
37 22 0
1 -22 -37 0
38 15 0
38 -20 0
-15 20 -38 0
39 -28 0
39 38 0
28 -38 -39 0
-40 39 0
-40 17 0
-39 -17 40 0
27 15 -42 0
-27 -15 -42 0
27 -15 42 0
-27 15 42 0
43 -41 0
43 42 0
41 -42 -43 0
-44 -40 0
-44 43 0
40 -43 44 0
45 -37 0
45 -44 0
37 44 -45 0
46 3 0
46 22 0
-3 -22 -46 0
47 45 0
47 -46 0
-45 46 -47 0
48 -3 0
48 6 0
3 -6 -48 0
-26 9 -49 0
26 -9 -49 0
-26 -9 49 0
26 9 49 0
50 49 0
50 22 0
-49 -22 -50 0
-52 50 0
-52 51 0
-50 -51 52 0
-53 48 0
-53 -52 0
-48 52 53 0
-47 -53 -54 0
47 53 -54 0
-47 53 54 0
47 -53 54 0
29 21 -55 0
-29 -21 -55 0
29 -21 55 0
-29 21 55 0
-55 -10 -56 0
55 10 -56 0
-55 10 56 0
55 -10 56 0
57 42 0
57 -22 0
-42 22 -57 0
17 -57 -58 0
-17 57 -58 0
17 57 58 0
-17 -57 58 0
60 -21 0
60 59 0
21 -59 -60 0
-61 60 0
-61 -15 0
-60 15 61 0
-42 -61 -62 0
42 61 -62 0
-42 61 62 0
42 -61 62 0
-63 -62 0
-63 -50 0
62 50 63 0
-64 -58 0
-64 63 0
58 -63 64 0
65 56 0
65 64 0
-56 -64 -65 0
-11 26 -66 0
11 -26 -66 0
-11 -26 66 0
11 26 66 0
-66 -7 -67 0
66 7 -67 0
-66 7 67 0
66 -7 67 0
59 -67 -68 0
-59 67 -68 0
59 67 68 0
-59 -67 68 0
65 -68 -69 0
-65 68 -69 0
65 68 69 0
-65 -68 69 0
-71 -29 0
-71 -70 0
29 70 71 0
7 71 -72 0
-7 -71 -72 0
7 -71 72 0
-7 71 72 0
-73 -60 0
-73 -38 0
60 38 73 0
-74 72 0
-74 -73 0
-72 73 74 0
75 -69 0
75 -74 0
69 74 -75 0
54 75 -76 0
-54 -75 -76 0
54 -75 76 0
-54 75 76 0
-36 -76 -77 0
36 76 -77 0
-36 76 77 0
36 -76 77 0
78 4 0
78 -77 0
-4 77 -78 0
42 -38 -79 0
-42 38 -79 0
42 38 79 0
-42 -38 79 0
-11 -41 -80 0
11 41 -80 0
-11 41 80 0
11 -41 80 0
-79 -80 -81 0
79 80 -81 0
-79 80 81 0
79 -80 81 0
-11 82 -83 0
11 -82 -83 0
-11 -82 83 0
11 82 83 0
84 -83 0
84 12 0
83 -12 -84 0
85 13 0
85 -49 0
-13 49 -85 0
86 85 0
86 -9 0
-85 9 -86 0
84 -86 -87 0
-84 86 -87 0
84 86 87 0
-84 -86 87 0
81 87 -88 0
-81 -87 -88 0
81 -87 88 0
-81 87 88 0
-89 15 0
-89 -71 0
-15 71 89 0
-90 -50 0
-90 -41 0
50 41 90 0
-91 -30 0
-91 -42 0
30 42 91 0
-28 -91 -92 0
28 91 -92 0
-28 91 92 0
28 -91 92 0
16 92 -93 0
-16 -92 -93 0
16 -92 93 0
-16 92 93 0
-82 93 -94 0
82 -93 -94 0
-82 -93 94 0
82 93 94 0
-90 94 -95 0
90 -94 -95 0
-90 -94 95 0
90 94 95 0
-96 33 0
-96 -18 0
-33 18 96 0
97 -95 0
97 96 0
95 -96 -97 0
98 -29 0
98 -60 0
29 60 -98 0
97 -98 -99 0
-97 98 -99 0
97 98 99 0
-97 -98 99 0
-100 89 0
-100 99 0
-89 -99 100 0
101 -1 0
101 -66 0
1 66 -101 0
-102 -101 0
-102 -61 0
101 61 102 0
103 100 0
103 -102 0
-100 102 -103 0
-88 -103 -104 0
88 103 -104 0
-88 103 104 0
88 -103 104 0
-16 49 -105 0
16 -49 -105 0
-16 -49 105 0
16 49 105 0
106 17 0
106 23 0
-17 -23 -106 0
105 -106 -107 0
-105 106 -107 0
105 106 107 0
-105 -106 107 0
-108 -6 0
-108 14 0
6 -14 108 0
-109 107 0
-109 -108 0
-107 108 109 0
-104 109 -110 0
104 -109 -110 0
-104 -109 110 0
104 109 110 0
18 -31 -111 0
-18 31 -111 0
18 31 111 0
-18 -31 111 0
-112 -15 0
-112 111 0
15 -111 112 0
-113 -5 0
-113 -11 0
5 11 113 0
-112 -113 -114 0
112 113 -114 0
-112 113 114 0
112 -113 114 0
-115 -26 0
-115 59 0
26 -59 115 0
-116 -7 0
-116 -13 0
7 13 116 0
-117 115 0
-117 -116 0
-115 116 117 0
118 114 0
118 117 0
-114 -117 -118 0
3 20 -119 0
-3 -20 -119 0
3 -20 119 0
-3 20 119 0
-120 -15 0
-120 91 0
15 -91 120 0
119 120 -121 0
-119 -120 -121 0
119 -120 121 0
-119 120 121 0
122 118 0
122 121 0
-118 -121 -122 0
123 59 0
123 6 0
-59 -6 -123 0
-124 41 0
-124 21 0
-41 -21 124 0
-125 123 0
-125 -124 0
-123 124 125 0
126 42 0
126 22 0
-42 -22 -126 0
-126 -83 -127 0
126 83 -127 0
-126 83 127 0
126 -83 127 0
-101 -127 -128 0
101 127 -128 0
-101 127 128 0
101 -127 128 0
129 -125 0
129 -128 0
125 128 -129 0
-130 122 0
-130 -129 0
-122 129 130 0
-110 -130 -131 0
110 130 -131 0
-110 130 131 0
110 -130 131 0
-132 -78 0
-132 131 0
78 -131 132 0
-78 -108 -122 -91 -121 0
-100 -38 0
22 105 0
91 92 110 1 26 0
-41 -100 -123 -110 -87 114 0
63 105 95 -7 0
10 59 0
85 54 105 -20 27 0
-118 -123 80 121 0
-42 -64 -128 -90 -56 -37 0
-71 75 0
112 28 -73 -17 -114 0
-114 -116 -31 100 30 -130 0
-55 -21 0
-57 -65 45 0
87 -129 -71 0
16 44 38 0
-89 -80 69 47 -111 0
4 18 -129 111 -41 0
57 34 0
-34 -9 105 0
-70 97 -62 34 0
-91 1 0
-112 59 110 -1 0
82 -120 3 -105 115 0
44 -126 -61 22 0
25 6 62 0
69 -73 -130 0
121 87 -11 -5 -58 0
30 61 85 -67 -79 0
1 -13 39 -102 -105 -37 0
-54 10 46 -28 0
51 -65 116 22 -3 -130 0
126 22 64 79 0
-73 -97 -14 25 44 122 0
132 -50 47 0
92 123 76 -10 -113 0
-76 -25 -79 91 -29 0
47 20 28 1 -96 0
110 -130 -5 -94 102 0
-6 46 -41 22 -117 -114 0
-110 -51 -40 0
22 116 88 -20 0
-32 110 92 -31 -103 0
108 -126 -121 -132 -110 127 0
121 129 127 -120 -56 0
3 103 55 -64 -33 104 0
14 10 55 0
49 -109 -95 -101 0
-111 11 -102 0
-108 -37 18 74 0
-120 -91 -132 -85 0
44 -127 -57 0
-106 -41 0
100 -98 -75 119 118 0
45 91 -96 0
40 -126 0
-114 31 0
121 68 0
132 0
